\* GLPK_problem *\
Minimize
OBJ: 1.88854175262 x_0__0_ + 1.88854175262 x_0__1_ + 1.88854175262 x_0__2_
 + 1.88854175262 x_0__3_ + 1.88854175262 x_0__4_ + 0.888541752616 x_0__5_
 + 1.88854175262 x_0__6_ + 1.88854175262 x_0__7_ + 1.88854175262 x_0__8_
 + 1.88854175262 x_0__9_ + 4.9576197172 x_1__0_ + 3.9576197172 x_1__1_
 + 4.9576197172 x_1__2_ + 4.9576197172 x_1__3_ + 4.9576197172 x_1__4_
 + 4.9576197172 x_1__5_ + 4.9576197172 x_1__6_ + 4.9576197172 x_1__7_
 + 4.9576197172 x_1__8_ + 4.9576197172 x_1__9_ + 1.03524983582 x_2__0_
 + 1.03524983582 x_2__1_ + 0.0352498358239 x_2__2_ + 1.03524983582 x_2__3_
 + 1.03524983582 x_2__4_ + 1.03524983582 x_2__5_ + 1.03524983582 x_2__6_
 + 1.03524983582 x_2__7_ + 1.03524983582 x_2__8_ + 1.03524983582 x_2__9_
 + 1.49457293512 x_3__0_ + 1.49457293512 x_3__1_ + 1.49457293512 x_3__2_
 + 1.49457293512 x_3__3_ + 1.49457293512 x_3__4_ + 1.49457293512 x_3__5_
 + 1.49457293512 x_3__6_ + 1.49457293512 x_3__7_ + 0.49457293512 x_3__8_
 + 1.49457293512 x_3__9_ + 3.20970948238 x_4__0_ + 3.20970948238 x_4__1_
 + 3.20970948238 x_4__2_ + 3.20970948238 x_4__3_ + 3.20970948238 x_4__4_
 + 3.20970948238 x_4__5_ + 3.20970948238 x_4__6_ + 3.20970948238 x_4__7_
 + 3.20970948238 x_4__8_ + 2.20970948238 x_4__9_ + 4.46437202056 x_5__0_
 + 4.46437202056 x_5__1_ + 4.46437202056 x_5__2_ + 4.46437202056 x_5__3_
 + 4.46437202056 x_5__4_ + 4.46437202056 x_5__5_ + 4.46437202056 x_5__6_
 + 3.46437202056 x_5__7_ + 4.46437202056 x_5__8_ + 4.46437202056 x_5__9_
 + 3.93184256531 x_6__0_ + 3.93184256531 x_6__1_ + 3.93184256531 x_6__2_
 + 2.93184256531 x_6__3_ + 3.93184256531 x_6__4_ + 3.93184256531 x_6__5_
 + 3.93184256531 x_6__6_ + 3.93184256531 x_6__7_ + 3.93184256531 x_6__8_
 + 3.93184256531 x_6__9_ + 1.60158065837 x_7__0_ + 1.60158065837 x_7__1_
 + 1.60158065837 x_7__2_ + 1.60158065837 x_7__3_ + 1.60158065837 x_7__4_
 + 1.60158065837 x_7__5_ + 0.601580658372 x_7__6_ + 1.60158065837 x_7__7_
 + 1.60158065837 x_7__8_ + 1.60158065837 x_7__9_ + 4.26459436384 x_8__0_
 + 4.26459436384 x_8__1_ + 4.26459436384 x_8__2_ + 4.26459436384 x_8__3_
 + 4.26459436384 x_8__4_ + 4.26459436384 x_8__5_ + 3.26459436384 x_8__6_
 + 4.26459436384 x_8__7_ + 4.26459436384 x_8__8_ + 4.26459436384 x_8__9_
 + 3.82617003642 x_9__0_ + 3.82617003642 x_9__1_ + 3.82617003642 x_9__2_
 + 3.82617003642 x_9__3_ + 3.82617003642 x_9__4_ + 2.82617003642 x_9__5_
 + 3.82617003642 x_9__6_ + 3.82617003642 x_9__7_ + 3.82617003642 x_9__8_
 + 3.82617003642 x_9__9_ + 1.5 z_0_ + 1.5 z_1_ + 1.5 z_2_ + 1.5 z_3_
 + 1.5 z_4_ + 1.5 z_5_ + 1.5 z_6_ + 1.5 z_7_ + 1.5 z_8_ + 1.5 z_9_
Subject To
_C1: x_0__0_ + x_0__1_ + x_0__2_ + x_0__3_ + x_0__4_ + x_0__5_ + x_0__6_
 + x_0__7_ + x_0__8_ + x_0__9_ = 1
_C10: x_9__0_ + x_9__1_ + x_9__2_ + x_9__3_ + x_9__4_ + x_9__5_ + x_9__6_
 + x_9__7_ + x_9__8_ + x_9__9_ = 1
_C11: 0.222135438154 x_0__0_ + 0.989404929299 x_1__0_
 + 0.00881245895598 x_2__0_ + 0.12364323378 x_3__0_ + 0.552427370595 x_4__0_
 + 0.866093005139 x_5__0_ + 0.732960641327 x_6__0_ + 0.150395164593 x_7__0_
 + 0.816148590961 x_8__0_ + 0.706542509104 x_9__0_ - z_0_ <= 0
_C12: 0.306997267026 x_0__0_ + 0.299937964298 x_1__0_ + 0.76489220786 x_2__0_
 + 0.473341543511 x_3__0_ + 0.709564122561 x_4__0_ + 0.447262893929 x_5__0_
 + 0.820482145359 x_6__0_ + 0.189962479358 x_7__0_ + 0.687211553201 x_8__0_
 + 0.300216283806 x_9__0_ - z_0_ <= 0
_C13: 0.222135438154 x_0__1_ + 0.989404929299 x_1__1_
 + 0.00881245895598 x_2__1_ + 0.12364323378 x_3__1_ + 0.552427370595 x_4__1_
 + 0.866093005139 x_5__1_ + 0.732960641327 x_6__1_ + 0.150395164593 x_7__1_
 + 0.816148590961 x_8__1_ + 0.706542509104 x_9__1_ - z_1_ <= 0
_C14: 0.306997267026 x_0__1_ + 0.299937964298 x_1__1_ + 0.76489220786 x_2__1_
 + 0.473341543511 x_3__1_ + 0.709564122561 x_4__1_ + 0.447262893929 x_5__1_
 + 0.820482145359 x_6__1_ + 0.189962479358 x_7__1_ + 0.687211553201 x_8__1_
 + 0.300216283806 x_9__1_ - z_1_ <= 0
_C15: 0.222135438154 x_0__2_ + 0.989404929299 x_1__2_
 + 0.00881245895598 x_2__2_ + 0.12364323378 x_3__2_ + 0.552427370595 x_4__2_
 + 0.866093005139 x_5__2_ + 0.732960641327 x_6__2_ + 0.150395164593 x_7__2_
 + 0.816148590961 x_8__2_ + 0.706542509104 x_9__2_ - z_2_ <= 0
_C16: 0.306997267026 x_0__2_ + 0.299937964298 x_1__2_ + 0.76489220786 x_2__2_
 + 0.473341543511 x_3__2_ + 0.709564122561 x_4__2_ + 0.447262893929 x_5__2_
 + 0.820482145359 x_6__2_ + 0.189962479358 x_7__2_ + 0.687211553201 x_8__2_
 + 0.300216283806 x_9__2_ - z_2_ <= 0
_C17: 0.222135438154 x_0__3_ + 0.989404929299 x_1__3_
 + 0.00881245895598 x_2__3_ + 0.12364323378 x_3__3_ + 0.552427370595 x_4__3_
 + 0.866093005139 x_5__3_ + 0.732960641327 x_6__3_ + 0.150395164593 x_7__3_
 + 0.816148590961 x_8__3_ + 0.706542509104 x_9__3_ - z_3_ <= 0
_C18: 0.306997267026 x_0__3_ + 0.299937964298 x_1__3_ + 0.76489220786 x_2__3_
 + 0.473341543511 x_3__3_ + 0.709564122561 x_4__3_ + 0.447262893929 x_5__3_
 + 0.820482145359 x_6__3_ + 0.189962479358 x_7__3_ + 0.687211553201 x_8__3_
 + 0.300216283806 x_9__3_ - z_3_ <= 0
_C19: 0.222135438154 x_0__4_ + 0.989404929299 x_1__4_
 + 0.00881245895598 x_2__4_ + 0.12364323378 x_3__4_ + 0.552427370595 x_4__4_
 + 0.866093005139 x_5__4_ + 0.732960641327 x_6__4_ + 0.150395164593 x_7__4_
 + 0.816148590961 x_8__4_ + 0.706542509104 x_9__4_ - z_4_ <= 0
_C2: x_1__0_ + x_1__1_ + x_1__2_ + x_1__3_ + x_1__4_ + x_1__5_ + x_1__6_
 + x_1__7_ + x_1__8_ + x_1__9_ = 1
_C20: 0.306997267026 x_0__4_ + 0.299937964298 x_1__4_ + 0.76489220786 x_2__4_
 + 0.473341543511 x_3__4_ + 0.709564122561 x_4__4_ + 0.447262893929 x_5__4_
 + 0.820482145359 x_6__4_ + 0.189962479358 x_7__4_ + 0.687211553201 x_8__4_
 + 0.300216283806 x_9__4_ - z_4_ <= 0
_C21: 0.222135438154 x_0__5_ + 0.989404929299 x_1__5_
 + 0.00881245895598 x_2__5_ + 0.12364323378 x_3__5_ + 0.552427370595 x_4__5_
 + 0.866093005139 x_5__5_ + 0.732960641327 x_6__5_ + 0.150395164593 x_7__5_
 + 0.816148590961 x_8__5_ + 0.706542509104 x_9__5_ - z_5_ <= 0
_C22: 0.306997267026 x_0__5_ + 0.299937964298 x_1__5_ + 0.76489220786 x_2__5_
 + 0.473341543511 x_3__5_ + 0.709564122561 x_4__5_ + 0.447262893929 x_5__5_
 + 0.820482145359 x_6__5_ + 0.189962479358 x_7__5_ + 0.687211553201 x_8__5_
 + 0.300216283806 x_9__5_ - z_5_ <= 0
_C23: 0.222135438154 x_0__6_ + 0.989404929299 x_1__6_
 + 0.00881245895598 x_2__6_ + 0.12364323378 x_3__6_ + 0.552427370595 x_4__6_
 + 0.866093005139 x_5__6_ + 0.732960641327 x_6__6_ + 0.150395164593 x_7__6_
 + 0.816148590961 x_8__6_ + 0.706542509104 x_9__6_ - z_6_ <= 0
_C24: 0.306997267026 x_0__6_ + 0.299937964298 x_1__6_ + 0.76489220786 x_2__6_
 + 0.473341543511 x_3__6_ + 0.709564122561 x_4__6_ + 0.447262893929 x_5__6_
 + 0.820482145359 x_6__6_ + 0.189962479358 x_7__6_ + 0.687211553201 x_8__6_
 + 0.300216283806 x_9__6_ - z_6_ <= 0
_C25: 0.222135438154 x_0__7_ + 0.989404929299 x_1__7_
 + 0.00881245895598 x_2__7_ + 0.12364323378 x_3__7_ + 0.552427370595 x_4__7_
 + 0.866093005139 x_5__7_ + 0.732960641327 x_6__7_ + 0.150395164593 x_7__7_
 + 0.816148590961 x_8__7_ + 0.706542509104 x_9__7_ - z_7_ <= 0
_C26: 0.306997267026 x_0__7_ + 0.299937964298 x_1__7_ + 0.76489220786 x_2__7_
 + 0.473341543511 x_3__7_ + 0.709564122561 x_4__7_ + 0.447262893929 x_5__7_
 + 0.820482145359 x_6__7_ + 0.189962479358 x_7__7_ + 0.687211553201 x_8__7_
 + 0.300216283806 x_9__7_ - z_7_ <= 0
_C27: 0.222135438154 x_0__8_ + 0.989404929299 x_1__8_
 + 0.00881245895598 x_2__8_ + 0.12364323378 x_3__8_ + 0.552427370595 x_4__8_
 + 0.866093005139 x_5__8_ + 0.732960641327 x_6__8_ + 0.150395164593 x_7__8_
 + 0.816148590961 x_8__8_ + 0.706542509104 x_9__8_ - z_8_ <= 0
_C28: 0.306997267026 x_0__8_ + 0.299937964298 x_1__8_ + 0.76489220786 x_2__8_
 + 0.473341543511 x_3__8_ + 0.709564122561 x_4__8_ + 0.447262893929 x_5__8_
 + 0.820482145359 x_6__8_ + 0.189962479358 x_7__8_ + 0.687211553201 x_8__8_
 + 0.300216283806 x_9__8_ - z_8_ <= 0
_C29: 0.222135438154 x_0__9_ + 0.989404929299 x_1__9_
 + 0.00881245895598 x_2__9_ + 0.12364323378 x_3__9_ + 0.552427370595 x_4__9_
 + 0.866093005139 x_5__9_ + 0.732960641327 x_6__9_ + 0.150395164593 x_7__9_
 + 0.816148590961 x_8__9_ + 0.706542509104 x_9__9_ - z_9_ <= 0
_C3: x_2__0_ + x_2__1_ + x_2__2_ + x_2__3_ + x_2__4_ + x_2__5_ + x_2__6_
 + x_2__7_ + x_2__8_ + x_2__9_ = 1
_C30: 0.306997267026 x_0__9_ + 0.299937964298 x_1__9_ + 0.76489220786 x_2__9_
 + 0.473341543511 x_3__9_ + 0.709564122561 x_4__9_ + 0.447262893929 x_5__9_
 + 0.820482145359 x_6__9_ + 0.189962479358 x_7__9_ + 0.687211553201 x_8__9_
 + 0.300216283806 x_9__9_ - z_9_ <= 0
_C4: x_3__0_ + x_3__1_ + x_3__2_ + x_3__3_ + x_3__4_ + x_3__5_ + x_3__6_
 + x_3__7_ + x_3__8_ + x_3__9_ = 1
_C5: x_4__0_ + x_4__1_ + x_4__2_ + x_4__3_ + x_4__4_ + x_4__5_ + x_4__6_
 + x_4__7_ + x_4__8_ + x_4__9_ = 1
_C6: x_5__0_ + x_5__1_ + x_5__2_ + x_5__3_ + x_5__4_ + x_5__5_ + x_5__6_
 + x_5__7_ + x_5__8_ + x_5__9_ = 1
_C7: x_6__0_ + x_6__1_ + x_6__2_ + x_6__3_ + x_6__4_ + x_6__5_ + x_6__6_
 + x_6__7_ + x_6__8_ + x_6__9_ = 1
_C8: x_7__0_ + x_7__1_ + x_7__2_ + x_7__3_ + x_7__4_ + x_7__5_ + x_7__6_
 + x_7__7_ + x_7__8_ + x_7__9_ = 1
_C9: x_8__0_ + x_8__1_ + x_8__2_ + x_8__3_ + x_8__4_ + x_8__5_ + x_8__6_
 + x_8__7_ + x_8__8_ + x_8__9_ = 1
Binaries
x_0__0_
x_0__1_
x_0__2_
x_0__3_
x_0__4_
x_0__5_
x_0__6_
x_0__7_
x_0__8_
x_0__9_
x_1__0_
x_1__1_
x_1__2_
x_1__3_
x_1__4_
x_1__5_
x_1__6_
x_1__7_
x_1__8_
x_1__9_
x_2__0_
x_2__1_
x_2__2_
x_2__3_
x_2__4_
x_2__5_
x_2__6_
x_2__7_
x_2__8_
x_2__9_
x_3__0_
x_3__1_
x_3__2_
x_3__3_
x_3__4_
x_3__5_
x_3__6_
x_3__7_
x_3__8_
x_3__9_
x_4__0_
x_4__1_
x_4__2_
x_4__3_
x_4__4_
x_4__5_
x_4__6_
x_4__7_
x_4__8_
x_4__9_
x_5__0_
x_5__1_
x_5__2_
x_5__3_
x_5__4_
x_5__5_
x_5__6_
x_5__7_
x_5__8_
x_5__9_
x_6__0_
x_6__1_
x_6__2_
x_6__3_
x_6__4_
x_6__5_
x_6__6_
x_6__7_
x_6__8_
x_6__9_
x_7__0_
x_7__1_
x_7__2_
x_7__3_
x_7__4_
x_7__5_
x_7__6_
x_7__7_
x_7__8_
x_7__9_
x_8__0_
x_8__1_
x_8__2_
x_8__3_
x_8__4_
x_8__5_
x_8__6_
x_8__7_
x_8__8_
x_8__9_
x_9__0_
x_9__1_
x_9__2_
x_9__3_
x_9__4_
x_9__5_
x_9__6_
x_9__7_
x_9__8_
x_9__9_
z_0_
z_1_
z_2_
z_3_
z_4_
z_5_
z_6_
z_7_
z_8_
z_9_
End
